Route #1:
Route #2: 58 22 42 45
Route #3: 14 17 57 37 59
Route #4: 33 19 1 24 36 5 48 44 49 30 53 46 40
Route #5: 39 50 28 2 6 11 40 16
Route #6: 23 12 43 9 54 10 31
Route #7: 52 38 29 13 8 27 55 35 15 32 56 26 34 21 4 47
Route #8: 25 18

Cost: 1730.695339396011
